(set-logic ALL)
(declare-fun var0 () String)
(assert (str.in_re var0 (re.++ (re.union (re.union (str.to_re "00") (str.to_re "1")) (re.union (str.to_re "222") (str.to_re "3"))) (re.++ (re.* (re.* (str.to_re "444"))) (re.++ (re.+ (re.+ (str.to_re "5"))) (re.++ (re.+ (re.* (str.to_re "66"))) (re.++ (re.union (re.+ (str.to_re "77")) (re.+ (str.to_re "888"))) (re.++ (re.union (re.* (str.to_re "99")) (re.* (str.to_re "aa"))) (re.++ (re.union (re.* (str.to_re "bbb")) (re.* (str.to_re "cc"))) (re.++ (re.union (re.* (str.to_re "d")) (re.* (str.to_re "ee"))) (re.++ (re.+ (re.* (str.to_re "fff"))) (re.++ (re.union (re.+ (str.to_re "gg")) (re.+ (str.to_re "hhh"))) (re.++ (re.union (re.* (str.to_re "iii")) (re.* (str.to_re "j"))) (re.++ (re.union (re.* (str.to_re "k")) (re.* (str.to_re "ll"))) (re.++ (re.* (re.union (str.to_re "m") (str.to_re "n"))) (re.++ (re.union (re.* (str.to_re "o")) (re.* (str.to_re "ppp"))) (re.++ (re.* (re.union (str.to_re "qqq") (str.to_re "rr"))) (re.++ (re.+ (re.union (str.to_re "ss") (str.to_re "t"))) (re.++ (re.* (re.+ (str.to_re "uu"))) (re.++ (re.union (re.union (str.to_re "vvv") (str.to_re "ww")) (re.union (str.to_re "x") (str.to_re "y"))) (re.++ (re.+ (re.union (str.to_re "zz") (str.to_re "A"))) (re.++ (re.union (re.+ (str.to_re "BBB")) (re.+ (str.to_re "CC"))) (re.++ (re.* (re.* (str.to_re "D"))) (re.++ (re.+ (re.* (str.to_re "E"))) (re.++ (re.* (re.union (str.to_re "FF") (str.to_re "GGG"))) (re.++ (re.union (re.union (str.to_re "HHH") (str.to_re "III")) (re.union (str.to_re "JJJ") (str.to_re "K"))) (re.++ (re.union (re.+ (str.to_re "L")) (re.+ (str.to_re "M"))) (re.++ (re.+ (re.union (str.to_re "NNN") (str.to_re "OOO"))) (re.++ (re.* (re.* (str.to_re "PP"))) (re.++ (re.+ (re.* (str.to_re "QQQ"))) (re.++ (re.* (re.union (str.to_re "R") (str.to_re "SSS"))) (re.++ (re.+ (re.+ (str.to_re "T"))) (re.++ (re.union (re.* (str.to_re "UU")) (re.* (str.to_re "V"))) (re.++ (re.union (re.* (str.to_re "W")) (re.* (str.to_re "X"))) (re.++ (re.* (re.* (str.to_re "Y"))) (re.++ (re.* (re.union (str.to_re "Z") (str.to_re "!!"))) (re.++ (re.+ (re.* (str.to_re """"))) (re.++ (re.union (re.+ (str.to_re "#")) (re.+ (str.to_re "$"))) (re.++ (re.union (re.+ (str.to_re "%%%")) (re.+ (str.to_re "&&&"))) (re.++ (re.union (re.* (str.to_re "'''")) (re.* (str.to_re "("))) (re.++ (re.union (re.union (str.to_re "))") (str.to_re "**")) (re.union (str.to_re "+") (str.to_re ",,,"))) (re.++ (re.union (re.union (str.to_re "--") (str.to_re "...")) (re.union (str.to_re "///") (str.to_re ":"))) (re.++ (re.* (re.* (str.to_re ";;"))) (re.++ (re.union (re.+ (str.to_re "<<<")) (re.+ (str.to_re "=="))) (re.++ (re.union (re.* (str.to_re ">>")) (re.* (str.to_re "?"))) (re.++ (re.* (re.* (str.to_re "@"))) (re.++ (re.union (re.* (str.to_re "[")) (re.* (str.to_re "\\\\\\"))) (re.++ (re.union (re.* (str.to_re "]]]")) (re.* (str.to_re "^^"))) (re.++ (re.* (re.union (str.to_re "_") (str.to_re "``"))) (re.++ (re.+ (re.* (str.to_re "{"))) (re.++ (re.* (re.union (str.to_re "||") (str.to_re "}}}"))) (re.++ (re.union (re.* (str.to_re "~~")) (re.* (str.to_re "0"))) (re.++ (re.* (re.+ (str.to_re "1"))) (re.++ (re.union (re.union (str.to_re "22") (str.to_re "333")) (re.union (str.to_re "44") (str.to_re "555"))) (re.++ (re.+ (re.* (str.to_re "666"))) (re.++ (re.* (re.+ (str.to_re "7"))) (re.++ (re.* (re.union (str.to_re "8") (str.to_re "999"))) (re.++ (re.union (re.+ (str.to_re "a")) (re.+ (str.to_re "b"))) (re.++ (re.* (re.+ (str.to_re "ccc"))) (re.++ (re.+ (re.union (str.to_re "d") (str.to_re "eee"))) (re.++ (re.+ (re.* (str.to_re "ff"))) (re.++ (re.union (re.+ (str.to_re "g")) (re.+ (str.to_re "h"))) (re.++ (re.union (re.+ (str.to_re "iii")) (re.+ (str.to_re "jjj"))) (re.++ (re.* (re.* (str.to_re "kk"))) (re.++ (re.* (re.union (str.to_re "ll") (str.to_re "m"))) (re.++ (re.union (re.union (str.to_re "nnn") (str.to_re "ooo")) (re.union (str.to_re "pp") (str.to_re "qqq"))) (re.++ (re.union (re.* (str.to_re "rrr")) (re.* (str.to_re "s"))) (re.++ (re.* (re.union (str.to_re "ttt") (str.to_re "uu"))) (re.++ (re.* (re.* (str.to_re "v"))) (re.++ (re.union (re.+ (str.to_re "www")) (re.+ (str.to_re "x"))) (re.++ (re.union (re.* (str.to_re "yyy")) (re.* (str.to_re "zzz"))) (re.++ (re.* (re.union (str.to_re "AA") (str.to_re "BBB"))) (re.++ (re.* (re.* (str.to_re "C"))) (re.++ (re.* (re.+ (str.to_re "DD"))) (re.++ (re.* (re.+ (str.to_re "EEE"))) (re.++ (re.+ (re.* (str.to_re "FF"))) (re.++ (re.* (re.+ (str.to_re "GGG"))) (re.++ (re.* (re.* (str.to_re "H"))) (re.++ (re.+ (re.union (str.to_re "II") (str.to_re "JJJ"))) (re.++ (re.union (re.* (str.to_re "KK")) (re.* (str.to_re "L"))) (re.++ (re.* (re.+ (str.to_re "M"))) (re.++ (re.* (re.* (str.to_re "NN"))) (re.++ (re.+ (re.* (str.to_re "OOO"))) (re.++ (re.union (re.* (str.to_re "PP")) (re.* (str.to_re "Q"))) (re.++ (re.+ (re.union (str.to_re "R") (str.to_re "SSS"))) (re.++ (re.* (re.+ (str.to_re "TT"))) (re.++ (re.* (re.* (str.to_re "UUU"))) (re.++ (re.* (re.* (str.to_re "V"))) (re.++ (re.union (re.+ (str.to_re "WW")) (re.+ (str.to_re "XXX"))) (re.++ (re.union (re.union (str.to_re "YY") (str.to_re "Z")) (re.union (str.to_re "!") (str.to_re """"))) (re.++ (re.* (re.union (str.to_re "###") (str.to_re "$$"))) (re.++ (re.union (re.+ (str.to_re "%%%")) (re.+ (str.to_re "&&&"))) (re.++ (re.+ (re.+ (str.to_re "''"))) (re.++ (re.* (re.union (str.to_re "((") (str.to_re ")"))) (re.++ (re.union (re.union (str.to_re "*") (str.to_re "+++")) (re.union (str.to_re ",,,") (str.to_re "-"))) (re.++ (re.+ (re.* (str.to_re "..."))) (re.++ (re.+ (re.* (str.to_re "/"))) (re.++ (re.union (re.+ (str.to_re ":::")) (re.+ (str.to_re ";;"))) (re.++ (re.* (re.union (str.to_re "<") (str.to_re "=="))) (re.++ (re.union (re.* (str.to_re ">>>")) (re.* (str.to_re "?"))) (re.++ (re.+ (re.* (str.to_re "@@@"))) (re.++ (re.+ (re.* (str.to_re "[[["))) (re.++ (re.+ (re.* (str.to_re "\\\\\\"))) (re.++ (re.+ (re.+ (str.to_re "]"))) (re.++ (re.* (re.* (str.to_re "^^"))) (re.++ (re.* (re.union (str.to_re "_") (str.to_re "``"))) (re.++ (re.union (re.* (str.to_re "{{")) (re.* (str.to_re "||"))) (re.++ (re.* (re.union (str.to_re "}}") (str.to_re "~~"))) (re.++ (re.* (re.+ (str.to_re "00"))) (re.++ (re.+ (re.union (str.to_re "111") (str.to_re "22"))) (re.++ (re.union (re.+ (str.to_re "33")) (re.+ (str.to_re "4"))) (re.++ (re.* (re.* (str.to_re "55"))) (re.++ (re.union (re.* (str.to_re "66")) (re.* (str.to_re "777"))) (re.++ (re.union (re.union (str.to_re "88") (str.to_re "9")) (re.union (str.to_re "aa") (str.to_re "b"))) (re.union (re.union (str.to_re "c") (str.to_re "dd")) (re.union (str.to_re "ee") (str.to_re "f")))))))))))))))))))))))))))))))))))))))))))))))))))))))))))))))))))))))))))))))))))))))))))))))))))))))))))))))))))))
(check-sat)